nK = 851;
nT = 4;
nI = 7;
L = 35;
TT = 182;
np = 1;
nc = 3;
b = [53, 25, 34, 43, 50, 50, 37];
d = [120, 143, 65, 92, 112, 137, 127];
m = [1.9, 1.8, 1.9, 1.4, 1.2, 2.1, 2];
pt = [0.23, 0.3, 0.21, 0.2];
st = [9.66, 12, 12.39, 11.8];
arc = {<1, 0, 1, 1, 0, 0, 0, [1, 1, 1, 1]>, <2, 1, 2, 1, 0, 0, 0, [1, 1, 1, 1]>, <3, 2, 3, 1, 0, 0, 0, [1, 1, 1, 1]>, <4, 3, 4, 1, 0, 0, 0, [1, 1, 1, 1]>, <5, 4, 5, 1, 0, 0, 0, [1, 1, 1, 1]>, <6, 5, 6, 1, 0, 0, 0, [1, 1, 1, 1]>, <7, 6, 7, 1, 0, 0, 0, [1, 1, 1, 1]>, <8, 7, 8, 1, 0, 0, 0, [1, 1, 1, 1]>, <9, 8, 9, 1, 0, 0, 0, [1, 1, 1, 1]>, <10, 9, 10, 1, 0, 0, 0, [1, 1, 1, 1]>, <11, 10, 11, 1, 0, 0, 0, [1, 1, 1, 1]>, <12, 11, 12, 1, 0, 0, 0, [1, 1, 1, 1]>, <13, 12, 13, 1, 0, 0, 0, [1, 1, 1, 1]>, <14, 13, 14, 1, 0, 0, 0, [1, 1, 1, 1]>, <15, 14, 15, 1, 0, 0, 0, [1, 1, 1, 1]>, <16, 15, 16, 1, 0, 0, 0, [1, 1, 1, 1]>, <17, 16, 17, 1, 0, 0, 0, [1, 1, 1, 1]>, <18, 17, 18, 1, 0, 0, 0, [1, 1, 1, 1]>, <19, 18, 19, 1, 0, 0, 0, [1, 1, 1, 1]>, <20, 19, 20, 1, 0, 0, 0, [1, 1, 1, 1]>, <21, 20, 21, 1, 0, 0, 0, [1, 1, 1, 1]>, <22, 21, 22, 1, 0, 0, 0, [1, 1, 1, 1]>, <23, 22, 23, 1, 0, 0, 0, [1, 1, 1, 1]>, <24, 23, 24, 1, 0, 0, 0, [1, 1, 1, 1]>, <25, 24, 25, 1, 0, 0, 0, [1, 1, 1, 1]>, <26, 25, 26, 1, 0, 0, 0, [1, 1, 1, 1]>, <27, 26, 27, 1, 0, 0, 0, [1, 1, 1, 1]>, <28, 27, 28, 1, 0, 0, 0, [1, 1, 1, 1]>, <29, 28, 29, 1, 0, 0, 0, [1, 1, 1, 1]>, <30, 29, 30, 1, 0, 0, 0, [1, 1, 1, 1]>, <31, 30, 31, 1, 0, 0, 0, [1, 1, 1, 1]>, <32, 31, 32, 1, 0, 0, 0, [1, 1, 1, 1]>, <33, 32, 33, 1, 0, 0, 0, [1, 1, 1, 1]>, <34, 33, 34, 1, 0, 0, 0, [1, 1, 1, 1]>, <35, 34, 35, 1, 0, 0, 0, [1, 1, 1, 1]>, <36, 0, 17, 17, 1, 0, 1, [0, 0, 1, 1]>, <37, 1, 18, 17, 1, 0, 1, [0, 0, 1, 1]>, <38, 2, 19, 17, 1, 0, 1, [0, 0, 1, 1]>, <39, 3, 20, 17, 1, 0, 1, [0, 0, 1, 1]>, <40, 4, 21, 17, 1, 0, 1, [0, 0, 1, 1]>, <41, 5, 22, 17, 1, 0, 1, [0, 0, 1, 1]>, <42, 6, 23, 17, 1, 0, 1, [0, 0, 1, 1]>, <43, 9, 26, 17, 1, 0, 1, [0, 0, 1, 1]>, <44, 10, 27, 17, 1, 0, 1, [0, 0, 1, 1]>, <45, 11, 28, 17, 1, 0, 1, [0, 0, 1, 1]>, <46, 12, 29, 17, 1, 0, 1, [0, 0, 1, 1]>, <47, 13, 30, 17, 1, 0, 1, [0, 0, 1, 1]>, <48, 14, 31, 17, 1, 0, 1, [0, 0, 1, 1]>, <49, 15, 32, 17, 1, 0, 1, [0, 0, 1, 1]>, <50, 16, 33, 17, 1, 0, 1, [0, 0, 1, 1]>, <51, 17, 34, 17, 1, 0, 1, [0, 0, 1, 1]>, <52, 18, 35, 17, 1, 0, 1, [0, 0, 1, 1]>, <53, 1, 17, 16, 2, 0, 1, [0, 1, 1, 0]>, <54, 2, 18, 16, 2, 0, 1, [0, 1, 1, 0]>, <55, 3, 19, 16, 2, 0, 1, [0, 1, 1, 0]>, <56, 4, 20, 16, 2, 0, 1, [0, 1, 1, 0]>, <57, 5, 21, 16, 2, 0, 1, [0, 1, 1, 0]>, <58, 6, 22, 16, 2, 0, 1, [0, 1, 1, 0]>, <59, 10, 26, 16, 2, 0, 1, [0, 1, 1, 0]>, <60, 11, 27, 16, 2, 0, 1, [0, 1, 1, 0]>, <61, 12, 28, 16, 2, 0, 1, [0, 1, 1, 0]>, <62, 13, 29, 16, 2, 0, 1, [0, 1, 1, 0]>, <63, 14, 30, 16, 2, 0, 1, [0, 1, 1, 0]>, <64, 15, 31, 16, 2, 0, 1, [0, 1, 1, 0]>, <65, 16, 32, 16, 2, 0, 1, [0, 1, 1, 0]>, <66, 17, 33, 16, 2, 0, 1, [0, 1, 1, 0]>, <67, 18, 34, 16, 2, 0, 1, [0, 1, 1, 0]>, <68, 19, 35, 16, 2, 0, 1, [0, 1, 1, 0]>, <69, 3, 17, 14, 3, 1, 0, [0, 0, 1, 1]>, <70, 4, 18, 14, 3, 1, 0, [0, 0, 1, 1]>, <71, 5, 19, 14, 3, 1, 0, [0, 0, 1, 1]>, <72, 6, 20, 14, 3, 1, 0, [0, 0, 1, 1]>, <73, 12, 26, 14, 3, 1, 0, [0, 0, 1, 1]>, <74, 13, 27, 14, 3, 1, 0, [0, 0, 1, 1]>, <75, 14, 28, 14, 3, 1, 0, [0, 0, 1, 1]>, <76, 15, 29, 14, 3, 1, 0, [0, 0, 1, 1]>, <77, 17, 31, 14, 3, 1, 0, [0, 0, 1, 1]>, <78, 18, 32, 14, 3, 1, 0, [0, 0, 1, 1]>, <79, 19, 33, 14, 3, 1, 0, [0, 0, 1, 1]>, <80, 20, 34, 14, 3, 1, 0, [0, 0, 1, 1]>, <81, 21, 35, 14, 3, 1, 0, [0, 0, 1, 1]>, <82, 0, 18, 18, 4, 0, 0, [1, 1, 0, 0]>, <83, 1, 19, 18, 4, 0, 0, [1, 1, 0, 0]>, <84, 2, 20, 18, 4, 0, 0, [1, 1, 0, 0]>, <85, 3, 21, 18, 4, 0, 0, [1, 1, 0, 0]>, <86, 4, 22, 18, 4, 0, 0, [1, 1, 0, 0]>, <87, 5, 23, 18, 4, 0, 0, [1, 1, 0, 0]>, <88, 6, 24, 18, 4, 0, 0, [1, 1, 0, 0]>, <89, 8, 26, 18, 4, 0, 0, [1, 1, 0, 0]>, <90, 9, 27, 18, 4, 0, 0, [1, 1, 0, 0]>, <91, 10, 28, 18, 4, 0, 0, [1, 1, 0, 0]>, <92, 11, 29, 18, 4, 0, 0, [1, 1, 0, 0]>, <93, 12, 30, 18, 4, 0, 0, [1, 1, 0, 0]>, <94, 13, 31, 18, 4, 0, 0, [1, 1, 0, 0]>, <95, 14, 32, 18, 4, 0, 0, [1, 1, 0, 0]>, <96, 15, 33, 18, 4, 0, 0, [1, 1, 0, 0]>, <97, 16, 34, 18, 4, 0, 0, [1, 1, 0, 0]>, <98, 17, 35, 18, 4, 0, 0, [1, 1, 0, 0]>, <99, 1, 17, 16, 5, 0, 0, [0, 1, 1, 0]>, <100, 2, 18, 16, 5, 0, 0, [0, 1, 1, 0]>, <101, 3, 19, 16, 5, 0, 0, [0, 1, 1, 0]>, <102, 4, 20, 16, 5, 0, 0, [0, 1, 1, 0]>, <103, 5, 21, 16, 5, 0, 0, [0, 1, 1, 0]>, <104, 6, 22, 16, 5, 0, 0, [0, 1, 1, 0]>, <105, 10, 26, 16, 5, 0, 0, [0, 1, 1, 0]>, <106, 11, 27, 16, 5, 0, 0, [0, 1, 1, 0]>, <107, 12, 28, 16, 5, 0, 0, [0, 1, 1, 0]>, <108, 13, 29, 16, 5, 0, 0, [0, 1, 1, 0]>, <109, 14, 30, 16, 5, 0, 0, [0, 1, 1, 0]>, <110, 15, 31, 16, 5, 0, 0, [0, 1, 1, 0]>, <111, 16, 32, 16, 5, 0, 0, [0, 1, 1, 0]>, <112, 17, 33, 16, 5, 0, 0, [0, 1, 1, 0]>, <113, 18, 34, 16, 5, 0, 0, [0, 1, 1, 0]>, <114, 19, 35, 16, 5, 0, 0, [0, 1, 1, 0]>, <115, 2, 17, 15, 6, 1, 0, [1, 1, 0, 0]>, <116, 3, 18, 15, 6, 1, 0, [1, 1, 0, 0]>, <117, 4, 19, 15, 6, 1, 0, [1, 1, 0, 0]>, <118, 5, 20, 15, 6, 1, 0, [1, 1, 0, 0]>, <119, 6, 21, 15, 6, 1, 0, [1, 1, 0, 0]>, <120, 11, 26, 15, 6, 1, 0, [1, 1, 0, 0]>, <121, 12, 27, 15, 6, 1, 0, [1, 1, 0, 0]>, <122, 13, 28, 15, 6, 1, 0, [1, 1, 0, 0]>, <123, 14, 29, 15, 6, 1, 0, [1, 1, 0, 0]>, <124, 15, 30, 15, 6, 1, 0, [1, 1, 0, 0]>, <125, 16, 31, 15, 6, 1, 0, [1, 1, 0, 0]>, <126, 17, 32, 15, 6, 1, 0, [1, 1, 0, 0]>, <127, 18, 33, 15, 6, 1, 0, [1, 1, 0, 0]>, <128, 19, 34, 15, 6, 1, 0, [1, 1, 0, 0]>, <129, 20, 35, 15, 6, 1, 0, [1, 1, 0, 0]>, <130, 4, 17, 13, 7, 0, 0, [1, 1, 0, 0]>, <131, 5, 18, 13, 7, 0, 0, [1, 1, 0, 0]>, <132, 6, 19, 13, 7, 0, 0, [1, 1, 0, 0]>, <133, 13, 26, 13, 7, 0, 0, [1, 1, 0, 0]>, <134, 14, 27, 13, 7, 0, 0, [1, 1, 0, 0]>, <135, 15, 28, 13, 7, 0, 0, [1, 1, 0, 0]>, <136, 18, 31, 13, 7, 0, 0, [1, 1, 0, 0]>, <137, 19, 32, 13, 7, 0, 0, [1, 1, 0, 0]>, <138, 20, 33, 13, 7, 0, 0, [1, 1, 0, 0]>, <139, 21, 34, 13, 7, 0, 0, [1, 1, 0, 0]>, <140, 22, 35, 13, 7, 0, 0, [1, 1, 0, 0]>};
